
  12    4
  10   10   10   10

   0   0   0   0   0   3 2 4 5 
   5  10  10  10  10   2 6 3 
   5  10  10  10  10   5 11 10 9 8 7 
   3  10  10  10  10   3 10 9 6 
   2  10  10  10  10   1 6 
   7  10  10  10  10   2 8 7 
   5  10  10  10  10   1 12
   9  10  10  10  10   1 12
  10  10  10  10  10   1 12
   3  10  10  10  10   1 12
   2  10  10  10  10   1 12
   0   0   0   0   0   0 
